c Sudoku solution
p cnf 729 0
129 0
216 0
252 0
312 0
338 0
396 0
424 0
455 0
467 0
489 0
553 0
568 0
574 0
613 0
654 0
662 0
675 0
763 0
792 0
821 0
834 0
842 0
114 0
879 0
299 0
994 0
744 0
898 0
883 0
195 0
493 0
987 0
785 0
381 0
284 0
364 0
969 0
359 0
857 0
866 0
945 0
815 0
918 0
758 0
951 0
771 0
976 0
411 0
628 0
446 0
432 0
582 0
478 0
686 0
922 0
933 0
265 0
231 0
137 0
223 0
325 0
535 0
526 0
727 0
736 0
719 0
517 0
639 0
591 0
697 0
549 0
641 0
161 0
156 0
172 0
188 0
373 0
277 0
143 0
347 0
248 0
